Maximize 
 
57600.00000000000 x1 + 3264.000000000000 x10 + 65280.00000000000 x11 + 65280.00000000000 x12 + 65280.00000000000 x13 + 65280.00000000000 x14 + 57600.00000000000 x2 + 57600.00000000000 x3 + 57600.00000000000 x4 + 57600.00000000000 x5 + 57600.00000000000 x6 + 57600.00000000000 x7 + 57600.00000000000 x8 + 3264.000000000000 x9
Subject To 
 
57600.00000000000 x1 + 3264.000000000000 x10 + 65280.00000000000 x11 + 65280.00000000000 x12 + 65280.00000000000 x13 + 65280.00000000000 x14 + 57600.00000000000 x2 + 57600.00000000000 x3 + 57600.00000000000 x4 + 57600.00000000000 x5 + 57600.00000000000 x6 + 57600.00000000000 x7 + 57600.00000000000 x8 + 3264.000000000000 x9 >= -1
3200.000000000000 x1 + 544.0000000000000 x10 + 3200.000000000000 x2 + 3200.000000000000 x3 + 3200.000000000000 x4 + 3200.000000000000 x5 + 3200.000000000000 x6 + 3200.000000000000 x7 + 3200.000000000000 x8 + 544.0000000000000 x9 >= -1
3200.000000000000 x1 + 544.0000000000000 x10 + 3200.000000000000 x2 + 3200.000000000000 x3 + 3200.000000000000 x4 + 3200.000000000000 x5 + 3200.000000000000 x6 + 3200.000000000000 x7 + 3200.000000000000 x8 + 544.0000000000000 x9 <= 84
384.0000000000000 x10 + 1920.000000000000 x11 + 1920.000000000000 x12 + 1920.000000000000 x13 + 1920.000000000000 x14 + 384.0000000000000 x9 >= -1
384.0000000000000 x10 + 1920.000000000000 x11 + 1920.000000000000 x12 + 1920.000000000000 x13 + 1920.000000000000 x14 + 384.0000000000000 x9 <= 84
-96.00000000000000 x10 - 1920.000000000000 x11 - 1920.000000000000 x12 - 1920.000000000000 x13 - 1920.000000000000 x14 - 96.00000000000000 x9 >= -1
-96.00000000000000 x10 - 1920.000000000000 x11 - 1920.000000000000 x12 - 1920.000000000000 x13 - 1920.000000000000 x14 - 96.00000000000000 x9 <= 84
-1152.000000000000 x1 - 1152.000000000000 x2 - 1152.000000000000 x3 - 1152.000000000000 x4 - 1152.000000000000 x5 - 1152.000000000000 x6 - 1152.000000000000 x7 - 1152.000000000000 x8 >= -1
-1152.000000000000 x1 - 1152.000000000000 x2 - 1152.000000000000 x3 - 1152.000000000000 x4 - 1152.000000000000 x5 - 1152.000000000000 x6 - 1152.000000000000 x7 - 1152.000000000000 x8 <= 84
152.44582472000704 x10 + 2071.083505599859 x11 + 2071.083505599859 x12 - 791.08350559986560 x13 - 791.08350559986560 x14 + 295.5541752799930 x9 >= -1
152.44582472000704 x10 + 2071.083505599859 x11 + 2071.083505599859 x12 - 791.08350559986560 x13 - 791.08350559986560 x14 + 295.5541752799930 x9 <= 84
295.5541752799930 x10 - 791.08350559986560 x11 - 791.08350559986560 x12 + 2071.083505599859 x13 + 2071.083505599859 x14 + 152.44582472000704 x9 >= -1
295.5541752799930 x10 - 791.08350559986560 x11 - 791.08350559986560 x12 + 2071.083505599859 x13 + 2071.083505599859 x14 + 152.44582472000704 x9 <= 84
118.6625258399795 x10 - 310.6625258399795 x9 >= -1
118.6625258399795 x10 - 310.6625258399795 x9 <= 84
-310.6625258399795 x10 + 118.6625258399795 x9 >= -1
-310.6625258399795 x10 + 118.6625258399795 x9 <= 84
192.0000000000000 x10 - 768.0000000000000 x11 - 768.0000000000000 x12 - 768.0000000000000 x13 - 768.0000000000000 x14 + 192.0000000000000 x9 >= -1
192.0000000000000 x10 - 768.0000000000000 x11 - 768.0000000000000 x12 - 768.0000000000000 x13 - 768.0000000000000 x14 + 192.0000000000000 x9 <= 84
64.00000000000000 x10 + 64.00000000000000 x9 >= -1
64.00000000000000 x10 + 64.00000000000000 x9 <= 84
55.55417527999328 x10 - 197.77087639996640 x11 - 197.77087639996640 x12 + 517.7708763999648 x13 + 517.7708763999648 x14 - 87.554175279993280 x9 >= -1
55.55417527999328 x10 - 197.77087639996640 x11 - 197.77087639996640 x12 + 517.7708763999648 x13 + 517.7708763999648 x14 - 87.554175279993280 x9 <= 84
-87.554175279993280 x10 + 517.7708763999648 x11 + 517.7708763999648 x12 - 197.77087639996640 x13 - 197.77087639996640 x14 + 55.55417527999328 x9 >= -1
-87.554175279993280 x10 + 517.7708763999648 x11 + 517.7708763999648 x12 - 197.77087639996640 x13 - 197.77087639996640 x14 + 55.55417527999328 x9 <= 84
-29.66563145999488 x10 + 77.66563145999488 x9 >= -1
-29.66563145999488 x10 + 77.66563145999488 x9 <= 84
77.66563145999488 x10 - 29.66563145999488 x9 >= -1
77.66563145999488 x10 - 29.66563145999488 x9 <= 84
524.6671815002419 x1 + 524.6671815002419 x2 - 124.90966142118016 x3 - 124.90966142118016 x4 - 743.8601073197414 x5 - 743.8601073197414 x6 + 88.10258724068122 x7 + 88.10258724068122 x8 >= -1
524.6671815002419 x1 + 524.6671815002419 x2 - 124.90966142118016 x3 - 124.90966142118016 x4 - 743.8601073197414 x5 - 743.8601073197414 x6 + 88.10258724068122 x7 + 88.10258724068122 x8 <= 84
-124.90966142118016 x1 - 124.90966142118016 x2 + 524.6671815002419 x3 + 524.6671815002419 x4 + 88.10258724068122 x5 + 88.10258724068122 x6 - 743.8601073197414 x7 - 743.8601073197414 x8 >= -1
-124.90966142118016 x1 - 124.90966142118016 x2 + 524.6671815002419 x3 + 524.6671815002419 x4 + 88.10258724068122 x5 + 88.10258724068122 x6 - 743.8601073197414 x7 - 743.8601073197414 x8 <= 84
88.10258724068122 x1 + 88.10258724068122 x2 - 743.8601073197414 x3 - 743.8601073197414 x4 + 524.6671815002419 x5 + 524.6671815002419 x6 - 124.90966142118016 x7 - 124.90966142118016 x8 >= -1
88.10258724068122 x1 + 88.10258724068122 x2 - 743.8601073197414 x3 - 743.8601073197414 x4 + 524.6671815002419 x5 + 524.6671815002419 x6 - 124.90966142118016 x7 - 124.90966142118016 x8 <= 84
-743.8601073197414 x1 - 743.8601073197414 x2 + 88.10258724068122 x3 + 88.10258724068122 x4 - 124.90966142118016 x5 - 124.90966142118016 x6 + 524.6671815002419 x7 + 524.6671815002419 x8 >= -1
-743.8601073197414 x1 - 743.8601073197414 x2 + 88.10258724068122 x3 + 88.10258724068122 x4 - 124.90966142118016 x5 - 124.90966142118016 x6 + 524.6671815002419 x7 + 524.6671815002419 x8 <= 84
103.5541752799932 x10 + 158.2167011199731 x11 + 158.2167011199731 x12 - 414.21670111997184 x13 - 414.21670111997184 x14 - 39.55417527999322 x9 >= -1
103.5541752799932 x10 + 158.2167011199731 x11 + 158.2167011199731 x12 - 414.21670111997184 x13 - 414.21670111997184 x14 - 39.55417527999322 x9 <= 84
-39.55417527999322 x10 - 414.21670111997184 x11 - 414.21670111997184 x12 + 158.2167011199731 x13 + 158.2167011199731 x14 + 103.5541752799932 x9 >= -1
-39.55417527999322 x10 - 414.21670111997184 x11 - 414.21670111997184 x12 + 158.2167011199731 x13 + 158.2167011199731 x14 + 103.5541752799932 x9 <= 84
225.0000000000000 x1 - 51.00000000000000 x10 - 255.0000000000000 x11 - 255.0000000000000 x12 - 255.0000000000000 x13 - 255.0000000000000 x14 + 225.0000000000000 x2 + 225.0000000000000 x3 + 225.0000000000000 x4 + 225.0000000000000 x5 + 225.0000000000000 x6 + 225.0000000000000 x7 + 225.0000000000000 x8 - 51.00000000000000 x9 >= -1
225.0000000000000 x1 - 51.00000000000000 x10 - 255.0000000000000 x11 - 255.0000000000000 x12 - 255.0000000000000 x13 - 255.0000000000000 x14 + 225.0000000000000 x2 + 225.0000000000000 x3 + 225.0000000000000 x4 + 225.0000000000000 x5 + 225.0000000000000 x6 + 225.0000000000000 x7 + 225.0000000000000 x8 - 51.00000000000000 x9 <= 84
-48.00000000000000 x10 + 192.0000000000000 x11 + 192.0000000000000 x12 + 192.0000000000000 x13 + 192.0000000000000 x14 - 48.00000000000000 x9 >= -1
-48.00000000000000 x10 + 192.0000000000000 x11 + 192.0000000000000 x12 + 192.0000000000000 x13 + 192.0000000000000 x14 - 48.00000000000000 x9 <= 84
End